1767651
30,56,48,80,104,22,64,23,15,53,102,54,58,97,106,19,13,93,18,108,60,55,73,71,11,47,89,49,31,91,41,37,26,38,72,75,57,86,27,69,70,14,39,8,28,36,65,105,12,33,7,42,99,50,88,78,87,40,68,62,76,96,100,17,21,74,92,103,63,20,29,16,107,94,81,59,84,51,2,46,25,4,67,79,90,24,109,10,66,77,9,35,45,34,82,1,98,5,101,52,83,3,44,61,85,32,95,43,6